n = 24;
lu = [|-345, -309
      |-212, 541
      |-305, -113
      |279, 374
      |-145, -140
      |-281, 226
      |-308, -243
      |-192, -164
      |-520, 257
      |-434, -85
      |-382, 284
      |-311, 68
      |-215, 461
      |-22, 488
      |-100, 343
      |-307, -167
      |-549, 6
      |-415, -44
      |489, 516
      |-323, -5
      |-233, 278
      |-163, 177
      |-510, -435
      |303, 423|];
